# Generated by ConicBenchmarkUtilities.jl
VER
2

OBJSENSE
MIN

VAR
249 1
F 249

INT
30
21
22
23
24
25
26
27
28
29
30
31
32
33
34
35
36
37
38
39
40
41
42
43
44
45
46
47
48
49
50

CON
689 649
L= 1
L= 1
L= 1
L= 1
L= 1
L= 1
L= 1
L= 1
L= 1
L= 1
L= 1
L= 1
L= 1
L= 1
L= 1
L= 1
L= 1
L= 1
EXP 3
L+ 1
L+ 1
L= 1
L= 1
L= 1
L= 1
L+ 1
L+ 1
L+ 1
L+ 1
EXP 3
L+ 1
L+ 1
L= 1
L= 1
L= 1
L= 1
L+ 1
L+ 1
L+ 1
L+ 1
L= 1
L= 1
L= 1
L= 1
L= 1
L+ 1
L+ 1
L+ 1
L+ 1
EXP 3
L+ 1
L+ 1
L= 1
L= 1
L= 1
L= 1
L+ 1
L+ 1
L+ 1
L+ 1
L= 1
L= 1
L= 1
L= 1
L= 1
L= 1
L= 1
L= 1
L+ 1
L+ 1
L+ 1
L+ 1
L+ 1
L+ 1
EXP 3
L+ 1
L+ 1
L= 1
L= 1
L= 1
L= 1
L+ 1
L+ 1
L+ 1
L+ 1
EXP 3
L+ 1
L+ 1
L= 1
L= 1
L= 1
L= 1
L+ 1
L+ 1
L+ 1
L+ 1
EXP 3
L+ 1
L+ 1
L= 1
L= 1
L= 1
L= 1
L+ 1
L+ 1
L+ 1
L+ 1
L= 1
L= 1
L= 1
L= 1
L= 1
L+ 1
L+ 1
L+ 1
L+ 1
L= 1
L= 1
L= 1
L= 1
L= 1
L+ 1
L+ 1
L+ 1
L+ 1
EXP 3
L+ 1
L+ 1
L= 1
L= 1
L= 1
L= 1
L+ 1
L+ 1
L+ 1
L+ 1
L= 1
L= 1
L= 1
L= 1
L= 1
L= 1
L= 1
L= 1
L+ 1
L+ 1
L+ 1
L+ 1
L+ 1
L+ 1
EXP 3
L+ 1
L+ 1
L= 1
L= 1
L= 1
L= 1
L+ 1
L+ 1
L+ 1
L+ 1
EXP 3
L+ 1
L+ 1
L= 1
L= 1
L= 1
L= 1
L+ 1
L+ 1
L+ 1
L+ 1
EXP 3
L+ 1
L+ 1
EXP 3
L+ 1
L+ 1
L= 1
L= 1
L= 1
L= 1
L= 1
L= 1
L+ 1
L+ 1
L+ 1
L+ 1
L+ 1
L+ 1
L= 1
L= 1
L= 1
L= 1
L= 1
L+ 1
L+ 1
L+ 1
L+ 1
L= 1
L= 1
L= 1
L= 1
L= 1
L+ 1
L+ 1
L+ 1
L+ 1
EXP 3
L+ 1
L+ 1
L= 1
L= 1
L= 1
L= 1
L+ 1
L+ 1
L+ 1
L+ 1
EXP 3
L+ 1
L+ 1
L= 1
L= 1
L= 1
L= 1
L+ 1
L+ 1
L+ 1
L+ 1
EXP 3
L+ 1
L+ 1
L= 1
L= 1
L= 1
L= 1
L+ 1
L+ 1
L+ 1
L+ 1
EXP 3
L+ 1
L+ 1
L= 1
L= 1
L= 1
L= 1
L+ 1
L+ 1
L+ 1
L+ 1
EXP 3
L+ 1
L+ 1
L= 1
L= 1
L= 1
L= 1
L+ 1
L+ 1
L+ 1
L+ 1
L= 1
L= 1
L= 1
L= 1
L= 1
L+ 1
L+ 1
L+ 1
L+ 1
EXP 3
L+ 1
L+ 1
L= 1
L= 1
L= 1
L= 1
L+ 1
L+ 1
L+ 1
L+ 1
L= 1
L= 1
L= 1
L= 1
L= 1
L= 1
L= 1
L= 1
L+ 1
L+ 1
L+ 1
L+ 1
L+ 1
L+ 1
EXP 3
L+ 1
L+ 1
L= 1
L= 1
L= 1
L= 1
L+ 1
L+ 1
L+ 1
L+ 1
EXP 3
L+ 1
L+ 1
L= 1
L= 1
L= 1
L= 1
L+ 1
L+ 1
L+ 1
L+ 1
EXP 3
L+ 1
L+ 1
L= 1
L= 1
L= 1
L= 1
L+ 1
L+ 1
L+ 1
L+ 1
L= 1
L= 1
L= 1
L= 1
L= 1
L+ 1
L+ 1
L+ 1
L+ 1
L= 1
L= 1
L= 1
L= 1
L= 1
L+ 1
L+ 1
L+ 1
L+ 1
L= 1
L+ 1
L+ 1
L+ 1
L+ 1
L+ 1
L+ 1
L+ 1
L+ 1
L+ 1
L+ 1
L+ 1
L+ 1
L+ 1
L+ 1
L+ 1
L+ 1
L+ 1
L+ 1
L+ 1
L+ 1
L+ 1
L+ 1
L+ 1
L+ 1
L+ 1
L+ 1
L+ 1
L+ 1
L+ 1
L+ 1
L+ 1
L+ 1
L+ 1
L+ 1
L+ 1
L+ 1
L+ 1
L+ 1
L+ 1
L+ 1
L+ 1
L+ 1
L+ 1
L+ 1
L+ 1
L+ 1
L+ 1
L+ 1
L+ 1
L+ 1
L+ 1
L+ 1
L+ 1
L+ 1
L+ 1
L+ 1
L+ 1
L+ 1
L+ 1
L+ 1
L+ 1
L+ 1
L+ 1
L+ 1
L+ 1
L+ 1
L+ 1
L+ 1
L+ 1
L+ 1
L+ 1
L+ 1
L+ 1
L+ 1
L+ 1
L+ 1
L+ 1
L+ 1
L+ 1
L+ 1
L+ 1
L+ 1
L+ 1
L+ 1
L+ 1
L+ 1
L+ 1
L+ 1
L+ 1
L+ 1
L+ 1
L+ 1
L+ 1
L+ 1
L+ 1
L+ 1
L+ 1
L+ 1
L+ 1
L+ 1
L+ 1
L+ 1
L+ 1
L+ 1
L+ 1
L+ 1
L+ 1
L+ 1
L+ 1
L+ 1
L+ 1
L+ 1
L+ 1
L+ 1
L+ 1
L+ 1
L+ 1
L+ 1
L+ 1
L+ 1
L+ 1
L+ 1
L+ 1
L+ 1
L+ 1
L+ 1
L+ 1
L+ 1
L+ 1
L+ 1
L+ 1
L+ 1
L+ 1
L+ 1
L+ 1
L+ 1
L+ 1
L+ 1
L+ 1
L+ 1
L+ 1
L+ 1
L+ 1
L+ 1
L+ 1
L+ 1
L+ 1
L+ 1
L+ 1
L+ 1
L+ 1
L+ 1
L+ 1
L+ 1
L+ 1
L+ 1
L+ 1
L+ 1
L+ 1
L+ 1
L+ 1
L+ 1
L+ 1
L+ 1
L+ 1
L+ 1
L+ 1
L+ 1
L+ 1
L+ 1
L+ 1
L+ 1
L+ 1
L+ 1
L+ 1
L+ 1
L+ 1
L+ 1
L+ 1
L+ 1
L+ 1
L+ 1
L+ 1
L+ 1
L+ 1
L+ 1
L+ 1
L+ 1
L+ 1
L+ 1
L+ 1
L+ 1
L+ 1
L+ 1
L+ 1
L+ 1
L+ 1
L+ 1
L+ 1
L+ 1
L+ 1
L+ 1
L+ 1
L+ 1
L+ 1
L+ 1
L+ 1
L+ 1
L+ 1
L+ 1
L+ 1
L+ 1
L+ 1
L+ 1
L+ 1
L+ 1
L+ 1
L+ 1
L+ 1
L+ 1
L+ 1
L+ 1
L+ 1
L+ 1
L+ 1
L+ 1
L+ 1
L+ 1
L+ 1
L+ 1
L+ 1
L+ 1
L+ 1
L+ 1
L+ 1
L+ 1
L+ 1
L+ 1
L+ 1
L+ 1
L+ 1
L+ 1
L+ 1
L+ 1
L+ 1
L+ 1
L+ 1
L+ 1
L+ 1
L+ 1
L+ 1
L+ 1
L+ 1
L+ 1
L+ 1
L+ 1
L+ 1
L+ 1
L+ 1
L+ 1
L+ 1
L+ 1
L+ 1
L+ 1
L+ 1
L+ 1
L+ 1
L+ 1
L+ 1
L+ 1
L+ 1
L+ 1
L+ 1
L+ 1
L+ 1
L+ 1
L+ 1
L+ 1
L+ 1
L+ 1
L+ 1
L+ 1
L+ 1
L+ 1
L+ 1
L+ 1
L+ 1
L+ 1
L+ 1
L+ 1
L+ 1
L+ 1
L+ 1
L+ 1
L+ 1
L+ 1
L+ 1
L+ 1
L+ 1
L+ 1

OBJACOORD
1
51 -1.0

ACOORD
1158
0 0 -1.0
1 0 1.0
426 0 1.0
427 0 -1.0
0 1 5.0
3 1 -1.0
433 1 1.0
0 2 -2.0
72 2 1.0
438 2 1.0
439 2 -1.0
0 3 -10.0
156 3 1.0
456 3 1.0
457 3 -1.0
0 4 -5.0
8 4 -1.0
458 4 1.0
459 4 -1.0
0 5 40.0
157 5 1.0
466 5 1.0
0 6 15.0
172 6 1.0
467 6 1.0
0 7 10.0
185 7 1.0
468 7 1.0
0 8 30.0
205 8 1.0
469 8 1.0
0 9 35.0
216 9 1.0
470 9 1.0
0 10 20.0
225 10 1.0
471 10 1.0
0 11 25.0
238 11 1.0
472 11 1.0
0 12 15.0
251 12 1.0
473 12 1.0
0 13 30.0
14 13 -1.0
481 13 1.0
0 14 -1.0
323 14 1.0
486 14 1.0
487 14 -1.0
0 15 80.0
17 15 -1.0
495 15 1.0
0 16 285.0
339 16 1.0
496 16 1.0
0 17 290.0
352 17 1.0
497 17 1.0
0 18 280.0
365 18 1.0
498 18 1.0
0 19 290.0
374 19 1.0
499 19 1.0
0 20 350.0
383 20 1.0
500 20 1.0
0 21 -5.0
18 21 1.0
19 21 1.0
21 21 1.0
27 21 40.0
28 21 -40.0
29 21 3.71357206670431
30 21 -3.71357206670431
388 21 1.0
398 21 1.0
399 21 1.0
400 21 1.0
629 21 1.0
630 21 -1.0
0 22 -8.0
31 22 1.0
32 22 1.0
34 22 1.0
40 22 40.0
41 22 -40.0
42 22 4.45628648004517
43 22 -4.45628648004517
388 22 1.0
398 22 1.0
399 22 1.0
400 22 1.0
631 22 1.0
632 22 -1.0
0 23 -6.0
49 23 4.45628648004517
50 23 -4.45628648004517
51 23 3.34221486003388
52 23 -3.34221486003388
389 23 -1.0
398 23 -1.0
401 23 1.0
402 23 1.0
633 23 1.0
634 23 -1.0
0 24 -10.0
53 24 1.0
54 24 1.0
56 24 1.0
62 24 4.45628648004517
63 24 -4.45628648004517
64 24 2.54515263975353
65 24 -2.54515263975353
392 24 -1.0
399 24 -1.0
403 24 1.0
635 24 1.0
636 24 -1.0
0 25 -6.0
74 25 4.45628648004517
75 25 -4.45628648004517
76 25 30.0
77 25 -30.0
78 25 15.0
79 25 -15.0
394 25 -1.0
400 25 -1.0
404 25 1.0
405 25 1.0
406 25 1.0
637 25 1.0
638 25 -1.0
0 26 -7.0
80 26 1.0
81 26 1.0
83 26 1.0
89 26 3.34221486003388
90 26 -3.34221486003388
91 26 1.83548069293539
92 26 -1.83548069293539
389 26 1.0
390 26 -1.0
401 26 -1.0
407 26 1.0
639 26 1.0
640 26 -1.0
0 27 -4.0
93 27 1.0
94 27 1.0
96 27 1.0
102 27 3.34221486003388
103 27 -3.34221486003388
104 27 1.32154609891348
105 27 -1.32154609891348
389 27 1.0
391 27 -1.0
402 27 -1.0
408 27 1.0
641 27 1.0
642 27 -1.0
0 28 -5.0
106 28 1.0
107 28 1.0
109 28 1.0
115 28 2.54515263975353
116 28 -2.54515263975353
117 28 1.26558121681553
118 28 -1.26558121681553
392 28 1.0
393 28 -1.0
403 28 -1.0
409 28 1.0
410 28 1.0
643 28 1.0
644 28 -1.0
0 29 -2.0
124 29 15.0
125 29 -15.0
126 29 13.5
127 29 -13.5
394 29 1.0
395 29 -1.0
404 29 -1.0
645 29 1.0
646 29 -1.0
0 30 -4.0
133 30 15.0
134 30 -15.0
135 30 9.0
136 30 -9.0
394 30 1.0
396 30 -1.0
405 30 -1.0
411 30 1.0
412 30 1.0
647 30 1.0
648 30 -1.0
0 31 -3.0
137 31 1.0
138 31 1.0
140 31 1.0
146 31 15.0
147 31 -15.0
148 31 3.04984759446376
149 31 -3.04984759446376
394 31 1.0
397 31 -1.0
406 31 -1.0
413 31 1.0
414 31 1.0
415 31 1.0
649 31 1.0
650 31 -1.0
0 32 -7.0
158 32 1.83548069293539
159 32 -1.83548069293539
160 32 20.0
161 32 -20.0
162 32 20.0
163 32 -20.0
390 32 1.0
407 32 -1.0
651 32 1.0
652 32 -1.0
0 33 -3.0
164 33 1.0
165 33 1.0
167 33 1.0
173 33 1.32154609891348
174 33 -1.32154609891348
175 33 0.842233385663186
176 33 -0.842233385663186
391 33 1.0
408 33 -1.0
653 33 1.0
654 33 -1.0
0 34 -2.0
177 34 1.0
178 34 1.0
180 34 1.0
186 34 1.26558121681553
187 34 -1.26558121681553
188 34 0.572481933717686
189 34 -0.572481933717686
393 34 1.0
409 34 -1.0
655 34 1.0
656 34 -1.0
0 35 -4.0
190 35 1.0
191 35 1.0
193 35 1.0
195 35 1.0
196 35 1.0
198 35 1.0
206 35 1.26558121681553
207 35 -1.26558121681553
208 35 33.5
209 35 -33.5
210 35 2.30162356062425
211 35 -2.30162356062425
393 35 1.0
395 35 1.0
410 35 -1.0
657 35 1.0
658 35 -1.0
0 36 -2.0
217 36 9.0
218 36 -9.0
219 36 9.0
220 36 -9.0
396 36 1.0
411 36 -1.0
659 36 1.0
660 36 -1.0
0 37 -3.0
226 37 9.0
227 37 -9.0
228 37 9.0
229 37 -9.0
396 37 1.0
412 37 -1.0
661 37 1.0
662 37 -1.0
0 38 -5.0
230 38 1.0
231 38 1.0
233 38 1.0
239 38 3.04984759446376
240 38 -3.04984759446376
241 38 1.04900943706034
242 38 -1.04900943706034
397 38 1.0
413 38 -1.0
663 38 1.0
664 38 -1.0
0 39 -2.0
243 39 1.0
244 39 1.0
246 39 1.0
252 39 3.04984759446376
253 39 -3.04984759446376
254 39 1.11894339953103
255 39 -1.11894339953103
397 39 1.0
414 39 -1.0
665 39 1.0
666 39 -1.0
0 40 -1.0
256 40 1.0
257 40 1.0
259 40 1.0
265 40 3.04984759446376
266 40 -3.04984759446376
267 40 1.18887736200171
268 40 -1.18887736200171
397 40 1.0
415 40 -1.0
416 40 -1.0
419 40 1.0
420 40 1.0
667 40 1.0
668 40 -1.0
0 41 -2.0
269 41 1.0
270 41 1.0
272 41 1.0
278 41 1.18887736200171
279 41 -1.18887736200171
280 41 0.78338879230327
281 41 -0.78338879230327
416 41 1.0
419 41 -1.0
669 41 1.0
670 41 -1.0
0 42 -9.0
282 42 1.0
283 42 1.0
285 42 1.0
291 42 1.18887736200171
292 42 -1.18887736200171
293 42 0.940066550763924
294 42 -0.940066550763924
416 42 1.0
420 42 -1.0
671 42 1.0
672 42 -1.0
0 43 -5.0
300 43 0.940066550763924
301 43 -0.940066550763924
302 43 0.705049913072943
303 43 -0.705049913072943
417 43 -1.0
421 43 1.0
422 43 1.0
673 43 1.0
674 43 -1.0
0 44 -2.0
304 44 1.0
305 44 1.0
307 44 1.0
313 44 0.940066550763924
314 44 -0.940066550763924
315 44 0.994083415506506
316 44 -0.994083415506506
418 44 -1.0
423 44 1.0
675 44 1.0
676 44 -1.0
0 45 -10.0
325 45 0.940066550763924
326 45 -0.940066550763924
327 45 30.0
328 45 -30.0
329 45 15.0
330 45 -15.0
424 45 1.0
425 45 1.0
677 45 1.0
678 45 -1.0
0 46 -4.0
331 46 1.0
332 46 1.0
334 46 1.0
340 46 0.705049913072943
341 46 -0.705049913072943
342 46 0.666992981045719
343 46 -0.666992981045719
417 46 1.0
421 46 -1.0
679 46 1.0
680 46 -1.0
0 47 -7.0
344 47 1.0
345 47 1.0
347 47 1.0
353 47 0.705049913072943
354 47 -0.705049913072943
355 47 0.480234946352917
356 47 -0.480234946352917
417 47 1.0
422 47 -1.0
681 47 1.0
682 47 -1.0
0 48 -4.0
357 48 1.0
358 48 1.0
360 48 1.0
366 48 0.994083415506506
367 48 -0.994083415506506
368 48 0.690184503917672
369 48 -0.690184503917672
418 48 1.0
423 48 -1.0
683 48 1.0
684 48 -1.0
0 49 -2.0
375 49 15.0
376 49 -15.0
377 49 13.5
378 49 -13.5
424 49 -1.0
685 49 1.0
686 49 -1.0
0 50 -8.0
384 50 15.0
385 50 -15.0
386 50 9.0
387 50 -9.0
425 50 -1.0
687 50 1.0
688 50 -1.0
0 51 -1.0
1 52 -1.0
25 52 1.0
428 52 1.0
1 53 -1.0
38 53 1.0
429 53 1.0
2 54 -1.0
26 54 1.0
430 54 1.0
2 55 -1.0
39 55 1.0
431 55 1.0
2 56 1.0
3 56 1.0
432 56 1.0
3 57 -1.0
4 57 1.0
434 57 1.0
4 58 -1.0
47 58 1.0
435 58 1.0
4 59 -1.0
60 59 1.0
436 59 1.0
4 60 -1.0
71 60 1.0
437 60 1.0
5 61 1.0
48 61 1.0
440 61 1.0
5 62 -1.0
87 62 1.0
443 62 1.0
5 63 -1.0
100 63 1.0
444 63 1.0
6 64 1.0
73 64 1.0
442 64 1.0
6 65 -1.0
122 65 1.0
445 65 1.0
6 66 -1.0
131 66 1.0
446 66 1.0
6 67 -1.0
144 67 1.0
447 67 1.0
7 68 1.0
114 68 1.0
450 68 1.0
7 69 -1.0
184 69 1.0
454 69 1.0
7 70 -1.0
203 70 1.0
455 70 1.0
8 71 -1.0
123 71 1.0
451 71 1.0
8 72 1.0
204 72 1.0
460 72 1.0
9 73 1.0
132 73 1.0
452 73 1.0
9 74 -1.0
215 74 1.0
461 74 1.0
9 75 -1.0
224 75 1.0
462 75 1.0
10 76 1.0
145 76 1.0
453 76 1.0
10 77 -1.0
237 77 1.0
463 77 1.0
10 78 -1.0
250 78 1.0
464 78 1.0
10 79 -1.0
263 79 1.0
465 79 1.0
11 80 1.0
264 80 1.0
474 80 1.0
11 81 -1.0
12 81 1.0
475 81 1.0
12 82 -1.0
276 82 1.0
476 82 1.0
12 83 -1.0
289 83 1.0
477 83 1.0
13 84 -1.0
277 84 1.0
478 84 1.0
13 85 -1.0
290 85 1.0
479 85 1.0
13 86 1.0
14 86 1.0
480 86 1.0
14 87 -1.0
15 87 1.0
482 87 1.0
15 88 -1.0
298 88 1.0
483 88 1.0
15 89 -1.0
311 89 1.0
484 89 1.0
15 90 -1.0
322 90 1.0
485 90 1.0
16 91 1.0
299 91 1.0
488 91 1.0
16 92 -1.0
338 92 1.0
491 92 1.0
16 93 -1.0
351 93 1.0
492 93 1.0
17 94 1.0
324 94 1.0
490 94 1.0
17 95 -1.0
373 95 1.0
493 95 1.0
17 96 -1.0
382 96 1.0
494 96 1.0
20 97 -1.0
22 97 -1.0
18 98 1.0
21 98 1.0
25 98 -1.0
27 98 -1.0
501 98 1.0
22 99 -1.0
26 99 -1.0
29 99 -1.0
505 99 1.0
23 100 1.0
25 100 -1.0
28 100 -1.0
502 100 1.0
24 101 1.0
26 101 -1.0
30 101 -1.0
506 101 1.0
33 102 -1.0
35 102 -1.2
31 103 1.0
34 103 1.0
38 103 -1.0
40 103 -1.0
503 103 1.0
35 104 -1.0
39 104 -1.0
42 104 -1.0
507 104 1.0
36 105 1.0
38 105 -1.0
41 105 -1.0
504 105 1.0
37 106 1.0
39 106 -1.0
43 106 -1.0
508 106 1.0
44 107 -0.75
47 107 -1.0
49 107 -1.0
509 107 1.0
44 108 1.0
48 108 -1.0
51 108 -1.0
517 108 1.0
45 109 1.0
47 109 -1.0
50 109 -1.0
510 109 1.0
46 110 1.0
48 110 -1.0
52 110 -1.0
518 110 1.0
55 111 -1.0
57 111 -1.5
53 112 1.0
56 112 1.0
60 112 -1.0
62 112 -1.0
511 112 1.0
57 113 -1.0
61 113 -1.0
64 113 -1.0
519 113 1.0
58 114 1.0
60 114 -1.0
63 114 -1.0
512 114 1.0
59 115 1.0
61 115 -1.0
65 115 -1.0
521 115 1.0
61 116 1.0
113 116 1.0
441 116 1.0
66 117 -1.0
71 117 -1.0
74 117 -1.0
513 117 1.0
66 118 1.0
67 118 1.0
73 118 -1.0
78 118 -1.0
523 118 1.0
67 119 -0.5
72 119 -1.0
76 119 -1.0
515 119 1.0
68 120 1.0
71 120 -1.0
75 120 -1.0
514 120 1.0
69 121 1.0
72 121 -1.0
77 121 -1.0
516 121 1.0
70 122 1.0
73 122 -1.0
79 122 -1.0
524 122 1.0
82 123 -1.0
84 123 -1.25
80 124 1.0
83 124 1.0
87 124 -1.0
89 124 -1.0
525 124 1.0
84 125 -1.0
88 125 -1.0
91 125 -1.0
535 125 1.0
85 126 1.0
87 126 -1.0
90 126 -1.0
526 126 1.0
86 127 1.0
88 127 -1.0
92 127 -1.0
537 127 1.0
88 128 1.0
155 128 1.0
448 128 1.0
95 129 -1.0
97 129 -0.9
93 130 1.0
96 130 1.0
100 130 -1.0
102 130 -1.0
527 130 1.0
97 131 -1.0
101 131 -1.0
104 131 -1.0
539 131 1.0
98 132 1.0
100 132 -1.0
103 132 -1.0
528 132 1.0
99 133 1.0
101 133 -1.0
105 133 -1.0
541 133 1.0
101 134 1.0
171 134 1.0
449 134 1.0
108 135 -1.0
110 135 -1.0
106 136 1.0
109 136 1.0
113 136 -1.0
115 136 -1.0
520 136 1.0
110 137 -1.0
114 137 -1.0
117 137 -1.0
543 137 1.0
111 138 1.0
113 138 -1.0
116 138 -1.0
522 138 1.0
112 139 1.0
114 139 -1.0
118 139 -1.0
544 139 1.0
119 140 -0.9
122 140 -1.0
124 140 -1.0
529 140 1.0
119 141 1.0
123 141 -1.0
126 141 -1.0
545 141 1.0
120 142 1.0
122 142 -1.0
125 142 -1.0
530 142 1.0
121 143 1.0
123 143 -1.0
127 143 -1.0
546 143 1.0
128 144 -0.6
131 144 -1.0
133 144 -1.0
531 144 1.0
128 145 1.0
132 145 -1.0
135 145 -1.0
547 145 1.0
129 146 1.0
131 146 -1.0
134 146 -1.0
532 146 1.0
130 147 1.0
132 147 -1.0
136 147 -1.0
548 147 1.0
139 148 -1.0
141 148 -1.1
137 149 1.0
140 149 1.0
144 149 -1.0
146 149 -1.0
533 149 1.0
141 150 -1.0
145 150 -1.0
148 150 -1.0
549 150 1.0
142 151 1.0
144 151 -1.0
147 151 -1.0
534 151 1.0
143 152 1.0
145 152 -1.0
149 152 -1.0
550 152 1.0
150 153 -0.9
155 153 -1.0
158 153 -1.0
536 153 1.0
150 154 1.0
151 154 1.0
157 154 -1.0
162 154 -1.0
569 154 1.0
151 155 -1.0
156 155 -1.0
160 155 -1.0
555 155 1.0
152 156 1.0
155 156 -1.0
159 156 -1.0
538 156 1.0
153 157 1.0
156 157 -1.0
161 157 -1.0
556 157 1.0
154 158 1.0
157 158 -1.0
163 158 -1.0
570 158 1.0
166 159 -1.0
168 159 -1.0
164 160 1.0
167 160 1.0
171 160 -1.0
173 160 -1.0
540 160 1.0
168 161 -1.0
172 161 -1.0
175 161 -1.0
571 161 1.0
169 162 1.0
171 162 -1.0
174 162 -1.0
542 162 1.0
170 163 1.0
172 163 -1.0
176 163 -1.0
572 163 1.0
179 164 -1.0
181 164 -0.7
177 165 1.0
180 165 1.0
184 165 -1.0
186 165 -1.0
551 165 1.0
181 166 -1.0
185 166 -1.0
188 166 -1.0
573 166 1.0
182 167 1.0
184 167 -1.0
187 167 -1.0
552 167 1.0
183 168 1.0
185 168 -1.0
189 168 -1.0
574 168 1.0
192 169 -1.0
194 169 -0.65
190 170 1.0
193 170 1.0
203 170 -1.0
206 170 -1.0
553 170 1.0
194 171 -1.0
199 171 -1.0
205 171 -1.0
210 171 -1.0
575 171 1.0
197 172 -1.0
199 172 -0.65
195 173 1.0
198 173 1.0
204 173 -1.0
208 173 -1.0
557 173 1.0
200 174 1.0
203 174 -1.0
207 174 -1.0
554 174 1.0
201 175 1.0
204 175 -1.0
209 175 -1.0
558 175 1.0
202 176 1.0
205 176 -1.0
211 176 -1.0
576 176 1.0
212 177 -1.0
215 177 -1.0
217 177 -1.0
559 177 1.0
212 178 1.0
216 178 -1.0
219 178 -1.0
577 178 1.0
213 179 1.0
215 179 -1.0
218 179 -1.0
560 179 1.0
214 180 1.0
216 180 -1.0
220 180 -1.0
578 180 1.0
221 181 -1.0
224 181 -1.0
226 181 -1.0
561 181 1.0
221 182 1.0
225 182 -1.0
228 182 -1.0
579 182 1.0
222 183 1.0
224 183 -1.0
227 183 -1.0
562 183 1.0
223 184 1.0
225 184 -1.0
229 184 -1.0
580 184 1.0
232 185 -1.0
234 185 -0.75
230 186 1.0
233 186 1.0
237 186 -1.0
239 186 -1.0
563 186 1.0
234 187 -1.0
238 187 -1.0
241 187 -1.0
581 187 1.0
235 188 1.0
237 188 -1.0
240 188 -1.0
564 188 1.0
236 189 1.0
238 189 -1.0
242 189 -1.0
582 189 1.0
245 190 -1.0
247 190 -0.8
243 191 1.0
246 191 1.0
250 191 -1.0
252 191 -1.0
565 191 1.0
247 192 -1.0
251 192 -1.0
254 192 -1.0
583 192 1.0
248 193 1.0
250 193 -1.0
253 193 -1.0
566 193 1.0
249 194 1.0
251 194 -1.0
255 194 -1.0
584 194 1.0
258 195 -1.0
260 195 -0.85
256 196 1.0
259 196 1.0
263 196 -1.0
265 196 -1.0
567 196 1.0
260 197 -1.0
264 197 -1.0
267 197 -1.0
585 197 1.0
261 198 1.0
263 198 -1.0
266 198 -1.0
568 198 1.0
262 199 1.0
264 199 -1.0
268 199 -1.0
586 199 1.0
271 200 -1.0
273 200 -1.0
269 201 1.0
272 201 1.0
276 201 -1.0
278 201 -1.0
587 201 1.0
273 202 -1.0
277 202 -1.0
280 202 -1.0
591 202 1.0
274 203 1.0
276 203 -1.0
279 203 -1.0
588 203 1.0
275 204 1.0
277 204 -1.0
281 204 -1.0
592 204 1.0
284 205 -1.0
286 205 -1.2
282 206 1.0
285 206 1.0
289 206 -1.0
291 206 -1.0
589 206 1.0
286 207 -1.0
290 207 -1.0
293 207 -1.0
593 207 1.0
287 208 1.0
289 208 -1.0
292 208 -1.0
590 208 1.0
288 209 1.0
290 209 -1.0
294 209 -1.0
594 209 1.0
295 210 -0.75
298 210 -1.0
300 210 -1.0
595 210 1.0
295 211 1.0
299 211 -1.0
302 211 -1.0
603 211 1.0
296 212 1.0
298 212 -1.0
301 212 -1.0
596 212 1.0
297 213 1.0
299 213 -1.0
303 213 -1.0
604 213 1.0
306 214 -1.0
308 214 -1.5
304 215 1.0
307 215 1.0
311 215 -1.0
313 215 -1.0
597 215 1.0
308 216 -1.0
312 216 -1.0
315 216 -1.0
605 216 1.0
309 217 1.0
311 217 -1.0
314 217 -1.0
598 217 1.0
310 218 1.0
312 218 -1.0
316 218 -1.0
607 218 1.0
312 219 1.0
364 219 1.0
489 219 1.0
317 220 -1.0
322 220 -1.0
325 220 -1.0
599 220 1.0
317 221 1.0
318 221 1.0
324 221 -1.0
329 221 -1.0
609 221 1.0
318 222 -0.5
323 222 -1.0
327 222 -1.0
601 222 1.0
319 223 1.0
322 223 -1.0
326 223 -1.0
600 223 1.0
320 224 1.0
323 224 -1.0
328 224 -1.0
602 224 1.0
321 225 1.0
324 225 -1.0
330 225 -1.0
610 225 1.0
333 226 -1.0
335 226 -1.25
331 227 1.0
334 227 1.0
338 227 -1.0
340 227 -1.0
611 227 1.0
335 228 -1.0
339 228 -1.0
342 228 -1.0
619 228 1.0
336 229 1.0
338 229 -1.0
341 229 -1.0
612 229 1.0
337 230 1.0
339 230 -1.0
343 230 -1.0
620 230 1.0
346 231 -1.0
348 231 -0.9
344 232 1.0
347 232 1.0
351 232 -1.0
353 232 -1.0
613 232 1.0
348 233 -1.0
352 233 -1.0
355 233 -1.0
621 233 1.0
349 234 1.0
351 234 -1.0
354 234 -1.0
614 234 1.0
350 235 1.0
352 235 -1.0
356 235 -1.0
622 235 1.0
359 236 -1.0
361 236 -1.0
357 237 1.0
360 237 1.0
364 237 -1.0
366 237 -1.0
606 237 1.0
361 238 -1.0
365 238 -1.0
368 238 -1.0
623 238 1.0
362 239 1.0
364 239 -1.0
367 239 -1.0
608 239 1.0
363 240 1.0
365 240 -1.0
369 240 -1.0
624 240 1.0
370 241 -0.9
373 241 -1.0
375 241 -1.0
615 241 1.0
370 242 1.0
374 242 -1.0
377 242 -1.0
625 242 1.0
371 243 1.0
373 243 -1.0
376 243 -1.0
616 243 1.0
372 244 1.0
374 244 -1.0
378 244 -1.0
626 244 1.0
379 245 -0.6
382 245 -1.0
384 245 -1.0
617 245 1.0
379 246 1.0
383 246 -1.0
386 246 -1.0
627 246 1.0
380 247 1.0
382 247 -1.0
385 247 -1.0
618 247 1.0
381 248 1.0
383 248 -1.0
387 248 -1.0
628 248 1.0

BCOORD
100
28 40.0
30 3.71357206670431
41 40.0
43 4.45628648004517
50 4.45628648004517
52 3.34221486003388
63 4.45628648004517
65 2.54515263975353
75 4.45628648004517
77 30.0
79 15.0
90 3.34221486003388
92 1.83548069293539
103 3.34221486003388
105 1.32154609891348
116 2.54515263975353
118 1.26558121681553
125 15.0
127 13.5
134 15.0
136 9.0
147 15.0
149 3.04984759446376
159 1.83548069293539
161 20.0
163 20.0
174 1.32154609891348
176 0.842233385663186
187 1.26558121681553
189 0.572481933717686
207 1.26558121681553
209 33.5
211 2.30162356062425
218 9.0
220 9.0
227 9.0
229 9.0
240 3.04984759446376
242 1.04900943706034
253 3.04984759446376
255 1.11894339953103
266 3.04984759446376
268 1.18887736200171
279 1.18887736200171
281 0.78338879230327
292 1.18887736200171
294 0.940066550763924
301 0.940066550763924
303 0.705049913072943
314 0.940066550763924
316 0.994083415506506
326 0.940066550763924
328 30.0
330 15.0
341 0.705049913072943
343 0.666992981045719
354 0.705049913072943
356 0.480234946352917
367 0.994083415506506
369 0.690184503917672
376 15.0
378 13.5
385 15.0
387 9.0
388 -1.0
427 40.0
439 30.0
457 20.0
459 20.0
487 30.0
630 1.0
632 1.0
634 1.0
636 1.0
638 1.0
640 1.0
642 1.0
644 1.0
646 1.0
648 1.0
650 1.0
652 1.0
654 1.0
656 1.0
658 1.0
660 1.0
662 1.0
664 1.0
666 1.0
668 1.0
670 1.0
672 1.0
674 1.0
676 1.0
678 1.0
680 1.0
682 1.0
684 1.0
686 1.0
688 1.0
